(set-option :smt.auto-config false)
(set-option :smt.mbqi false)
(set-option :sat.random_seed 488)
(set-option :smt.random_seed 599)
(set-option :nlsat.seed 611)
(set-option :memory_max_size 6000)
(declare-fun f (Int) Int)
(declare-sort RegExStr 0)
(declare-sort RMode 0)
(declare-fun g (Int) Int)
(declare-fun h (Int Int) Int)
(declare-fun fourth_fun (Bool) Bool)
(declare-fun z3name!0 (Int) Bool)
(assert (! (forall ((xpy0 Int)) (! (fourth_fun (z3name!0 xpy0)) :pattern ((z3name!0 xpy0)) )) :named A0_0))
(assert (! (forall ((x!1py0 Int)) (! (or (not (z3name!0 x!1py0)) (= (h (f (g x!1py0)) 0) 0)) :pattern ((z3name!0 x!1py0)) )) :named A0_1))
(assert (! (forall ((x!1py1 Int)) (! (or (z3name!0 x!1py1) (not (= (h (f (g x!1py1)) 0) 0))) :pattern ((z3name!0 x!1py1)) )) :named A0_2))
(assert (! (not (fourth_fun false)) :named A1))
(assert (! (not (= (h (f (g 5)) 0) 0)) :named A2))
(check-sat)
(get-info :reason-unknown)
